solution status: optimal solution found
objective value:                                 8691
C1003                                               1 	(obj:235)
C1004                                               1 	(obj:59)
C1006                                               1 	(obj:0)
C1014                                               1 	(obj:154)
C1015                                               1 	(obj:38)
C1018                                               1 	(obj:0)
C1020                                               1 	(obj:0)
C1024                               0.999999999998863 	(obj:179)
C1025                               0.999999999998863 	(obj:45)
C1028                                               1 	(obj:0)
C1044                                               1 	(obj:622)
C1045                                               1 	(obj:155)
C1048                                               1 	(obj:0)
C1062                                               1 	(obj:37)
C1063                                               1 	(obj:25)
C1075                                               1 	(obj:37)
C1076                                               1 	(obj:25)
C1082                               0.999999999998579 	(obj:370)
C1083                               0.999999999998579 	(obj:92)
C1085                                               1 	(obj:0)
C1093                                               1 	(obj:244)
C1094                                               1 	(obj:61)
C1097                                               1 	(obj:0)
C1099                                               1 	(obj:0)
C1107                                               1 	(obj:0)
C1116                                               1 	(obj:0)
C1121                                               1 	(obj:541)
C1127                                               1 	(obj:0)
C1130                                               1 	(obj:94)
C1141                                               1 	(obj:30)
C1142                                               1 	(obj:20)
C1154                                               1 	(obj:30)
C1155                                               1 	(obj:20)
C1162                                               1 	(obj:121)
C1163                                               1 	(obj:30)
C1166                                               1 	(obj:0)
C1178                                               1 	(obj:0)
C1183                                               1 	(obj:17)
C1185                                               1 	(obj:106)
C1190                                               1 	(obj:0)
C1193                                               1 	(obj:84)
C1194                                               1 	(obj:66)
C1195                                               1 	(obj:18)
C1200                                               1 	(obj:168)
C1201                                               1 	(obj:42)
C1204                                               1 	(obj:0)
C1210                                               1 	(obj:7)
C1215                                               1 	(obj:99)
C1216                                               1 	(obj:22)
C1219                                               1 	(obj:6)
C1223                                               1 	(obj:0)
C1227                                               1 	(obj:59)
C1235                                               1 	(obj:0)
C1240                                               1 	(obj:39)
C1247                                               1 	(obj:0)
C1257                                               1 	(obj:154)
C1258                                               1 	(obj:38)
C1261                                               1 	(obj:0)
C1275                                               1 	(obj:0)
C1288                                               1 	(obj:0)
C1302                                               1 	(obj:0)
C1306                                               1 	(obj:291)
C1307                                               1 	(obj:109)
C1315                                               1 	(obj:0)
C1318                                               1 	(obj:92)
C1319                                               1 	(obj:80)
C1328                                               1 	(obj:46)
C1331                                               1 	(obj:80)
C1333                                               1 	(obj:27)
C1335                                               1 	(obj:273)
C1337                                               1 	(obj:20)
C1341                                               1 	(obj:0)
C1348                                               1 	(obj:336)
C1350                                               1 	(obj:0)
C1355                                               1 	(obj:84)
C1359                                               1 	(obj:187)
C1360                                               1 	(obj:0)
C1369                                               1 	(obj:121)
C1370                                               1 	(obj:30)
C1380                                               1 	(obj:36)
C1381                                               1 	(obj:13)
C1386                                               1 	(obj:0)
C1389                                               1 	(obj:146)
C1390                                               1 	(obj:120)
C1391                                               1 	(obj:40)
C1394                                               1 	(obj:600)
C1395                                               1 	(obj:150)
C1398                                               1 	(obj:0)
C1402                                               1 	(obj:225)
C1403                                               1 	(obj:75)
C1407                                               1 	(obj:260)
C1408                                               1 	(obj:65)
C1411                                               1 	(obj:0)
C1418                                               1 	(obj:26)
C1420                                               1 	(obj:229)
C1421                                               1 	(obj:57)
C1424                                               1 	(obj:0)
C1428                                               1 	(obj:86)
C1429                                               1 	(obj:29)
C1431                                               1 	(obj:24)
C1438                                               1 	(obj:6)
C1440                                               1 	(obj:0)
C1445                                               1 	(obj:19)
C1447                                               1 	(obj:9)
C1448                                               1 	(obj:0)
C1451                                               1 	(obj:96)
C1452                                               1 	(obj:78)
C1453                                               1 	(obj:26)
C1473                                               1 	(obj:0)
C1477                                               1 	(obj:45)
C1478                                               1 	(obj:15)
C1481                                               1 	(obj:0)
C1489                                               1 	(obj:0)
C1492                                               1 	(obj:151)
C1495                                               1 	(obj:100)
C1501                                               1 	(obj:0)
C1504                                               1 	(obj:0)
C1509                                               1 	(obj:0)
C1510                                               1 	(obj:0)
C1511                                               1 	(obj:0)
C1512                                               1 	(obj:0)
C1513                                               1 	(obj:0)
C1516                                               1 	(obj:0)
C1518                                               1 	(obj:0)
C1519                                               1 	(obj:0)
C1520                                               1 	(obj:0)
C1522                                               1 	(obj:0)
C1523                                               1 	(obj:0)
C1524                                               1 	(obj:0)
C1526                                               1 	(obj:0)
C1527                                               1 	(obj:0)
C1528                                               1 	(obj:0)
C1529                                               1 	(obj:0)
C1530                                               1 	(obj:0)
C1531                                               1 	(obj:0)
C1532                                               1 	(obj:0)
C1533                                               1 	(obj:0)
C1534                                               1 	(obj:0)
C1537                                               1 	(obj:0)
C1538                                               1 	(obj:0)
C1539                                               1 	(obj:0)
C1540                                               1 	(obj:0)
C1542                                               1 	(obj:0)
C1543                                               1 	(obj:0)
C1546                                               1 	(obj:0)
C1548                                               1 	(obj:0)
